Route #1: 1 11 51 48 53 42 49 54 47 45 46 52 41 3 14 71 15 9 74 10 12 69 73 68 36 1 
Route #2: 1 7 13 40 43 55 5 2 8 1 
Route #3: 1 70 57 62 64 67 65 33 32 38 39 50 72 1 
Route #4: 1 1 6 75 59 1 
Route #5: 1 44 37 20 1 
Route #6: 1 4 26 34 24 31 25 19 21 30 1 
Route #7: 1 63 60 58 61 56 1 
Route #8: 1 17 28 35 23 16 27 29 22 1 
Route #9: 1 18 66 1 

Cost 2303.96
Time 0.6522


 * Another infos *

 Iterations: 76 Time: 0.6522 sec - 0.0109 min - 0.0002 horas
0.0000 h 0.0109 min
Problem dimension: 76
